c A SAT instance generated from a 3-CNF formula that had 27 clauses and 9 variables
p cnf 9 27
-3 9 6 0
3 4 -2 0
-2 -5 1 0
8 5 -7 0
8 -5 3 0
1 8 5 0
4 5 -3 0
-6 -3 -4 0
9 -4 -8 0
4 -3 8 0
-1 8 5 0
-9 -2 1 0
2 5 4 0
-4 6 -8 0
4 1 -7 0
-9 -4 3 0
1 2 5 0
5 1 -4 0
9 -8 -6 0
7 -3 -9 0
-5 -3 4 0
8 -1 -7 0
6 1 8 0
9 6 5 0
9 2 -3 0
-2 -3 -1 0
-3 -4 -5 0
